(set-logic QF_NRA)
(declare-fun skoSP1 () Real)
(declare-fun skoSM1 () Real)
(declare-fun skoX () Real)
(declare-fun skoS () Real)
(assert (and (not (<= (+ (* (- 45) skoSP1) (* 6 skoSM1) (* (- 12) (* skoSM1 skoSM1)) (* (- 1215) (* skoSP1 skoSP1)) (* 270 (* skoSP1 skoSM1)) (* (- 540) (* skoSP1 skoSM1 skoSM1)) (* (- 24435) (* skoSP1 skoSP1 skoSP1)) (* 7290 (* skoSP1 skoSP1 skoSM1)) (* (- 14580) (* skoSP1 skoSP1 skoSM1 skoSM1)) (* (- 393660) (* skoSP1 skoSP1 skoSP1 skoSP1)) (* 146610 (* skoSP1 skoSP1 skoSP1 skoSM1)) (* (- 293220) (* skoSP1 skoSP1 skoSP1 skoSM1 skoSM1)) (* (- 5263380) (* skoSP1 skoSP1 skoSP1 skoSP1 skoSP1)) (* 2361960 (* skoSP1 skoSP1 skoSP1 skoSP1 skoSM1)) (* (- 4723920) (* skoSP1 skoSP1 skoSP1 skoSP1 skoSM1 skoSM1)) (* (- 59632200) (* skoSP1 skoSP1 skoSP1 skoSP1 skoSP1 skoSP1)) (* 31580280 (* skoSP1 skoSP1 skoSP1 skoSP1 skoSP1 skoSM1)) (* (- 63160560) (* skoSP1 skoSP1 skoSP1 skoSP1 skoSP1 skoSM1 skoSM1)) (* (- 578680200) (* skoSP1 skoSP1 skoSP1 skoSP1 skoSP1 skoSP1 skoSP1)) (* 357793200 (* skoSP1 skoSP1 skoSP1 skoSP1 skoSP1 skoSP1 skoSM1)) (* (- 715586400) (* skoSP1 skoSP1 skoSP1 skoSP1 skoSP1 skoSP1 skoSM1 skoSM1)) (* (- 4818398400) (* skoSP1 skoSP1 skoSP1 skoSP1 skoSP1 skoSP1 skoSP1 skoSP1)) (* 3472081200 (* skoSP1 skoSP1 skoSP1 skoSP1 skoSP1 skoSP1 skoSP1 skoSM1)) (* (- 6944162400) (* skoSP1 skoSP1 skoSP1 skoSP1 skoSP1 skoSP1 skoSP1 skoSM1 skoSM1)) (* (- 34295659200) (* skoSP1 skoSP1 skoSP1 skoSP1 skoSP1 skoSP1 skoSP1 skoSP1 skoSP1)) (* 28910390400 (* skoSP1 skoSP1 skoSP1 skoSP1 skoSP1 skoSP1 skoSP1 skoSP1 skoSM1)) (* (- 57820780800) (* skoSP1 skoSP1 skoSP1 skoSP1 skoSP1 skoSP1 skoSP1 skoSP1 skoSM1 skoSM1)) (* (- 206624260800) (* skoSP1 skoSP1 skoSP1 skoSP1 skoSP1 skoSP1 skoSP1 skoSP1 skoSP1 skoSP1)) (* 205773955200 (* skoSP1 skoSP1 skoSP1 skoSP1 skoSP1 skoSP1 skoSP1 skoSP1 skoSP1 skoSM1)) (* (- 411547910400) (* skoSP1 skoSP1 skoSP1 skoSP1 skoSP1 skoSP1 skoSP1 skoSP1 skoSP1 skoSM1 skoSM1)) (* (- 1033121304000) (* skoSP1 skoSP1 skoSP1 skoSP1 skoSP1 skoSP1 skoSP1 skoSP1 skoSP1 skoSP1 skoSP1)) (* 1239745564800 (* skoSP1 skoSP1 skoSP1 skoSP1 skoSP1 skoSP1 skoSP1 skoSP1 skoSP1 skoSP1 skoSM1)) (* (- 2479491129600) (* skoSP1 skoSP1 skoSP1 skoSP1 skoSP1 skoSP1 skoSP1 skoSP1 skoSP1 skoSP1 skoSM1 skoSM1)) (* (- 4132485216000) (* skoSP1 skoSP1 skoSP1 skoSP1 skoSP1 skoSP1 skoSP1 skoSP1 skoSP1 skoSP1 skoSP1 skoSP1)) (* 6198727824000 (* skoSP1 skoSP1 skoSP1 skoSP1 skoSP1 skoSP1 skoSP1 skoSP1 skoSP1 skoSP1 skoSP1 skoSM1)) (* (- 12397455648000) (* skoSP1 skoSP1 skoSP1 skoSP1 skoSP1 skoSP1 skoSP1 skoSP1 skoSP1 skoSP1 skoSP1 skoSM1 skoSM1)) (* (- 12397455648000) (* skoSP1 skoSP1 skoSP1 skoSP1 skoSP1 skoSP1 skoSP1 skoSP1 skoSP1 skoSP1 skoSP1 skoSP1 skoSP1)) (* 24794911296000 (* skoSP1 skoSP1 skoSP1 skoSP1 skoSP1 skoSP1 skoSP1 skoSP1 skoSP1 skoSP1 skoSP1 skoSP1 skoSM1)) (* (- 49589822592000) (* skoSP1 skoSP1 skoSP1 skoSP1 skoSP1 skoSP1 skoSP1 skoSP1 skoSP1 skoSP1 skoSP1 skoSP1 skoSM1 skoSM1)) (* (- 24794911296000) (* skoSP1 skoSP1 skoSP1 skoSP1 skoSP1 skoSP1 skoSP1 skoSP1 skoSP1 skoSP1 skoSP1 skoSP1 skoSP1 skoSP1)) (* 74384733888000 (* skoSP1 skoSP1 skoSP1 skoSP1 skoSP1 skoSP1 skoSP1 skoSP1 skoSP1 skoSP1 skoSP1 skoSP1 skoSP1 skoSM1)) (* (- 148769467776000) (* skoSP1 skoSP1 skoSP1 skoSP1 skoSP1 skoSP1 skoSP1 skoSP1 skoSP1 skoSP1 skoSP1 skoSP1 skoSP1 skoSM1 skoSM1)) (* (- 49589822592000) (* skoSP1 skoSP1 skoSP1 skoSP1 skoSP1 skoSP1 skoSP1 skoSP1 skoSP1 skoSP1 skoSP1 skoSP1 skoSP1 skoSP1 skoSP1)) (* 148769467776000 (* skoSP1 skoSP1 skoSP1 skoSP1 skoSP1 skoSP1 skoSP1 skoSP1 skoSP1 skoSP1 skoSP1 skoSP1 skoSP1 skoSP1 skoSM1)) (* (- 297538935552000) (* skoSP1 skoSP1 skoSP1 skoSP1 skoSP1 skoSP1 skoSP1 skoSP1 skoSP1 skoSP1 skoSP1 skoSP1 skoSP1 skoSP1 skoSM1 skoSM1)) (* (- 595077871104000) (* skoSP1 skoSP1 skoSP1 skoSP1 skoSP1 skoSP1 skoSP1 skoSP1 skoSP1 skoSP1 skoSP1 skoSP1 skoSP1 skoSP1 skoSP1 skoSM1 skoSM1))) 1)) (and (not (<= skoX 1)) (and (not (<= skoSP1 0)) (and (not (<= skoSM1 0)) (and (not (<= skoS 0)) (not (<= (* (- 1) skoX) (- 5)))))))))
(set-info :status unsat)
(check-sat)
